c Reduced graph for p12 generated by Cyril Grelier
p edge 26 90
e 1 2
e 1 6
e 1 8
e 1 10
e 1 11
e 1 13
e 1 20
e 1 23
e 2 4
e 2 9
e 2 10
e 2 11
e 2 14
e 2 20
e 2 24
e 3 4
e 3 5
e 3 7
e 3 12
e 3 15
e 3 16
e 3 22
e 3 25
e 4 9
e 4 14
e 4 15
e 4 16
e 4 24
e 4 25
e 5 6
e 5 7
e 5 12
e 5 17
e 5 18
e 5 22
e 5 26
e 6 8
e 6 13
e 6 17
e 6 18
e 6 23
e 6 26
e 7 8
e 7 9
e 7 12
e 7 19
e 7 22
e 8 9
e 8 13
e 8 19
e 8 23
e 9 14
e 9 19
e 9 24
e 10 11
e 10 15
e 10 17
e 10 20
e 10 21
e 11 16
e 11 18
e 11 19
e 11 20
e 12 13
e 12 14
e 12 21
e 12 22
e 13 14
e 13 21
e 13 23
e 14 21
e 14 24
e 15 16
e 15 17
e 15 21
e 15 25
e 16 18
e 16 19
e 16 25
e 17 18
e 17 21
e 17 26
e 18 19
e 18 26
e 20 25
e 20 26
e 22 23
e 22 24
e 23 24
e 25 26
